
;this file is automatically generated: Thu Jan 02 16:54:47 GMT 2020

;declarations generated

(declare-fun oclExcludes ( Int Int) Bool)
(declare-fun Cardinality ( Int) Int)
(declare-fun type_1544f087_5bee_4a24_b987_b47b2bac7fdb_Class56 ( Int) Bool)
(declare-fun type_1544f087_5bee_4a24_b987_b47b2bac7fdb_Class28 ( Int) Bool)
(declare-fun type_1544f087_5bee_4a24_b987_b47b2bac7fdb_Class29 ( Int) Bool)
(declare-fun type_1544f087_5bee_4a24_b987_b47b2bac7fdb_Class2 ( Int) Bool)
(declare-fun oclSelect ( Int Bool) Int)
(declare-fun Enum0 ( Int) Int)
(declare-fun Enum1 ( Int) Int)
(declare-fun Enum2 ( Int) Int)
(declare-fun container_ ( Int) Int)
(declare-fun obj_e9c59fdf_4436_49bc_aed6_e8664ffbec78 ( Int) Int)
(declare-fun oclIncludes ( Int Int) Bool)
(declare-fun class28_Class28BoolAttr1 ( Int) Bool)
(declare-fun ObjAt ( Int Int) Int)

;formula(s) generated
(assert (! (forall ((v Int)) (=> (and (and (and ( type_1544f087_5bee_4a24_b987_b47b2bac7fdb_Class28 v )  ( type_1544f087_5bee_4a24_b987_b47b2bac7fdb_Class56 v ) ) ( type_1544f087_5bee_4a24_b987_b47b2bac7fdb_Class29 v ) ) ( type_1544f087_5bee_4a24_b987_b47b2bac7fdb_Class2 v ) ) (not ( class28_Class28BoolAttr1 ( obj_e9c59fdf_4436_49bc_aed6_e8664ffbec78 v )  )  ))):named l0))
(assert (exists ((o Int)) (and (and (and ( type_1544f087_5bee_4a24_b987_b47b2bac7fdb_Class28 ( obj_e9c59fdf_4436_49bc_aed6_e8664ffbec78 o )  )  ( type_1544f087_5bee_4a24_b987_b47b2bac7fdb_Class56 ( obj_e9c59fdf_4436_49bc_aed6_e8664ffbec78 o )  ) ) ( type_1544f087_5bee_4a24_b987_b47b2bac7fdb_Class29 ( obj_e9c59fdf_4436_49bc_aed6_e8664ffbec78 o )  ) ) ( type_1544f087_5bee_4a24_b987_b47b2bac7fdb_Class2 ( obj_e9c59fdf_4436_49bc_aed6_e8664ffbec78 o )  ) )))

 ;end of formula 